0111000000000000
0011111111100000
0000000011100000
0000000011100000
0000000011100000
0000000011100000
0000000011100000
0000000011100000
0000000011100000
0000000011100000
0001111111100000
0011111111100000
0000000000000000
0000000000000000
0000000000000000
0000000000000000